Welcome to the CBC MILP Solver 
Version: 2.10.12 
Build Date: Aug 20 2024 

command line - /opt/homebrew/bin/cbc computational_data/real_data/lp/wine_trial_006_margin.lp seconds 10.0 solve solu computational_data/real_data/solutions/wine_trial_006_margin.sol (default strategy 1)
 CoinLpIO::readLp(): Maximization problem reformulated as minimization
Coin0009I Switching back to maximization to get correct duals etc
seconds was changed from 1e+100 to 10
Continuous objective value is 35.7852 - 0.00 seconds
Cgl0003I 0 fixed, 0 tightened bounds, 64 strengthened rows, 0 substitutions
Cgl0003I 0 fixed, 0 tightened bounds, 58 strengthened rows, 0 substitutions
Cgl0003I 0 fixed, 0 tightened bounds, 60 strengthened rows, 0 substitutions
Cgl0003I 0 fixed, 0 tightened bounds, 36 strengthened rows, 0 substitutions
Cgl0003I 0 fixed, 0 tightened bounds, 22 strengthened rows, 0 substitutions
Cgl0003I 0 fixed, 0 tightened bounds, 10 strengthened rows, 0 substitutions
Cgl0003I 0 fixed, 0 tightened bounds, 5 strengthened rows, 0 substitutions
Cgl0003I 0 fixed, 0 tightened bounds, 4 strengthened rows, 0 substitutions
Cgl0003I 0 fixed, 0 tightened bounds, 4 strengthened rows, 0 substitutions
Cgl0004I processed model has 73 rows, 33 columns (33 integer (32 of which binary)) and 603 elements
Cbc0038I Initial state - 2 integers unsatisfied sum - 0.222222
Cbc0038I Pass   1: suminf.    0.22222 (2) obj. 35.7852 iterations 7
Cbc0038I Solution found of 34.0074
Cbc0038I Cleaned solution of 34.0074
Cbc0038I Before mini branch and bound, 31 integers at bound fixed and 0 continuous
Cbc0038I Full problem 73 rows 33 columns, reduced to 0 rows 0 columns
Cbc0038I Mini branch and bound did not improve solution (0.01 seconds)
Cbc0038I Round again with cutoff of 34.1852
Cbc0038I Pass   2: suminf.    0.22222 (2) obj. 35.7852 iterations 0
Cbc0038I Pass   3: suminf.    0.17779 (1) obj. 34.1852 iterations 12
Cbc0038I Pass   4: suminf.    0.11111 (1) obj. 34.8963 iterations 1
Cbc0038I Pass   5: suminf.    0.40001 (2) obj. 34.1852 iterations 10
Cbc0038I Pass   6: suminf.    0.40001 (2) obj. 34.1852 iterations 8
Cbc0038I Pass   7: suminf.    0.62223 (3) obj. 34.1852 iterations 9
Cbc0038I Pass   8: suminf.    0.62223 (3) obj. 34.1852 iterations 4
Cbc0038I Pass   9: suminf.    0.40001 (2) obj. 34.1852 iterations 7
Cbc0038I Pass  10: suminf.    0.40001 (2) obj. 34.1852 iterations 0
Cbc0038I Pass  11: suminf.    0.40001 (2) obj. 34.1852 iterations 10
Cbc0038I Pass  12: suminf.    0.40001 (2) obj. 34.1852 iterations 13
Cbc0038I Pass  13: suminf.    0.40001 (2) obj. 34.1852 iterations 8
Cbc0038I Pass  14: suminf.    0.40001 (2) obj. 34.1852 iterations 8
Cbc0038I Pass  15: suminf.    0.17779 (1) obj. 34.1852 iterations 8
Cbc0038I Pass  16: suminf.    0.11111 (1) obj. 34.8963 iterations 2
Cbc0038I Pass  17: suminf.    0.11111 (1) obj. 34.8962 iterations 9
Cbc0038I Pass  18: suminf.    0.11111 (1) obj. 34.8962 iterations 9
Cbc0038I Pass  19: suminf.    0.17787 (1) obj. 34.1852 iterations 3
Cbc0038I Pass  20: suminf.    0.17787 (1) obj. 34.1852 iterations 6
Cbc0038I Pass  21: suminf.    0.17787 (1) obj. 34.1852 iterations 5
Cbc0038I Pass  22: suminf.    0.11111 (1) obj. 34.8962 iterations 2
Cbc0038I Pass  23: suminf.    0.44444 (2) obj. 34.5629 iterations 13
Cbc0038I Pass  24: suminf.    0.44444 (2) obj. 34.5629 iterations 5
Cbc0038I Pass  25: suminf.    0.40009 (2) obj. 34.1852 iterations 7
Cbc0038I Pass  26: suminf.    0.40009 (2) obj. 34.1852 iterations 0
Cbc0038I Pass  27: suminf.    0.82213 (2) obj. 34.1852 iterations 2
Cbc0038I Pass  28: suminf.    0.40001 (2) obj. 34.1852 iterations 17
Cbc0038I Pass  29: suminf.    0.40001 (2) obj. 34.1852 iterations 6
Cbc0038I Pass  30: suminf.    0.40001 (2) obj. 34.1852 iterations 3
Cbc0038I Pass  31: suminf.    0.17779 (1) obj. 34.1852 iterations 5
Cbc0038I No solution found this major pass
Cbc0038I Before mini branch and bound, 19 integers at bound fixed and 0 continuous
Cbc0038I Full problem 73 rows 33 columns, reduced to 10 rows 7 columns
Cbc0038I Mini branch and bound did not improve solution (0.01 seconds)
Cbc0038I After 0.01 seconds - Feasibility pump exiting with objective of 34.0074 - took 0.00 seconds
Cbc0012I Integer solution of 34.007416 found by feasibility pump after 0 iterations and 0 nodes (0.01 seconds)
Cbc0031I 4 added rows had average density of 23.75
Cbc0013I At root node, 17 cuts changed objective from 35.785194 to 34.007416 in 3 passes
Cbc0014I Cut generator 0 (Probing) - 0 row cuts average 0.0 elements, 0 column cuts (0 active)  in 0.000 seconds - new frequency is -100
Cbc0014I Cut generator 1 (Gomory) - 10 row cuts average 25.2 elements, 0 column cuts (0 active)  in 0.000 seconds - new frequency is 1
Cbc0014I Cut generator 2 (Knapsack) - 6 row cuts average 12.0 elements, 0 column cuts (0 active)  in 0.000 seconds - new frequency is 1
Cbc0014I Cut generator 3 (Clique) - 0 row cuts average 0.0 elements, 0 column cuts (0 active)  in 0.000 seconds - new frequency is -100
Cbc0014I Cut generator 4 (MixedIntegerRounding2) - 0 row cuts average 0.0 elements, 0 column cuts (0 active)  in 0.000 seconds - new frequency is -100
Cbc0014I Cut generator 5 (FlowCover) - 0 row cuts average 0.0 elements, 0 column cuts (0 active)  in 0.000 seconds - new frequency is -100
Cbc0014I Cut generator 6 (TwoMirCuts) - 15 row cuts average 20.9 elements, 0 column cuts (0 active)  in 0.000 seconds - new frequency is 1
Cbc0014I Cut generator 7 (ZeroHalf) - 10 row cuts average 9.7 elements, 0 column cuts (0 active)  in 0.003 seconds - new frequency is 1
Cbc0001I Search completed - best objective 34.00741599999999, took 75 iterations and 0 nodes (0.01 seconds)
Cbc0035I Maximum depth 0, 4 variables fixed on reduced cost
Cuts at root node changed objective from 35.7852 to 34.0074
Probing was tried 3 times and created 0 cuts of which 0 were active after adding rounds of cuts (0.000 seconds)
Gomory was tried 3 times and created 10 cuts of which 0 were active after adding rounds of cuts (0.000 seconds)
Knapsack was tried 3 times and created 6 cuts of which 0 were active after adding rounds of cuts (0.000 seconds)
Clique was tried 3 times and created 0 cuts of which 0 were active after adding rounds of cuts (0.000 seconds)
MixedIntegerRounding2 was tried 3 times and created 0 cuts of which 0 were active after adding rounds of cuts (0.000 seconds)
FlowCover was tried 3 times and created 0 cuts of which 0 were active after adding rounds of cuts (0.000 seconds)
TwoMirCuts was tried 3 times and created 15 cuts of which 0 were active after adding rounds of cuts (0.000 seconds)
ZeroHalf was tried 3 times and created 10 cuts of which 0 were active after adding rounds of cuts (0.003 seconds)

Result - Optimal solution found

Objective value:                34.00741600
Enumerated nodes:               0
Total iterations:               75
Time (CPU seconds):             0.01
Time (Wallclock seconds):       0.02

Total time (CPU seconds):       0.01   (Wallclock seconds):       0.02

